F_UNIQ := 6 9 12;
F_NODES[6] := 6 7 8;
F_NODES[9] := 9 10 11;
F_NODES[12] := 12 13 14;
#definition

# set
set V := 1 2 3 4 5 ; 	# customer set
set F := 6 9 12 7 8 10 11 13 14 ;#recharging & battery swapping station
set D0 :=0;
set Dsig :=15;


# param
param CV := 200;    		# ECV fixed cost(Topic Given)
param C := 1000;   		# ECV max load
param Q := 77.75; 		# ECV/BSV battery level
param h := 1;     		# ECV consumption

param CB := 267;    		# BSV fixed cost(Topic Given)
param Qplun := 5;       # BSV max load(battery)
param hplun := 1;     	# BSV consumption
param W := 155.50;		# BSV battery level

param Ct := 10;    		# travel cost
param Cr := 100;    		# recharging cost
param lamda := 0.00;	# battery swap time
param Cb ;  	    # battery swap cost(BSS/BSV)
param n :=5;	   		# number of customers
param g :=1.17 ;     	# the recharging rate of ECV 



# customer demend
param m :=
0 0
1 16
2 10
3 26
4 20
5 10
6 0
9 0
12 0
7 0
8 0
10 0
11 0
13 0
14 0
15 0;

param e :=
0 0
1 404
2 410
3 418
4 201
5 425
6 0
9 0
12 0
7 0
8 0
10 0
11 0
13 0
14 0
15 0;

param l :=
0 960
1 847
2 823
3 825
4 670
5 898
6 960
9 960
12 960
7 960
8 960
10 960
11 960
13 960
14 960
15 960;

param s :=
0 0
1 10
2 10
3 10
4 10
5 10
6 0
9 0
12 0
7 0
8 0
10 0
11 0
13 0
14 0
15 0;

param d : 0 1 2 3 4 5 6 9 12 7 8 10 11 13 14 15 :=
0 0.0000 13.0384 40.6079 15.5242 30.8058 51.0784 0.0000 36.2353 42.0595 0.0000 0.0000 36.2353 36.2353 42.0595 42.0595 0.0000
1 13.0384 0.0000 51.0000 22.0227 41.6293 46.5296 13.0384 47.7598 36.6742 13.0384 13.0384 47.7598 47.7598 36.6742 36.6742 13.0384
2 40.6079 51.0000 0.0000 29.7321 9.8995 56.4624 40.6079 8.0000 53.3667 40.6079 40.6079 8.0000 8.0000 53.3667 53.3667 40.6079
3 15.5242 22.0227 29.7321 0.0000 21.2132 40.0000 15.5242 28.0713 32.5576 15.5242 15.5242 28.0713 28.0713 32.5576 32.5576 15.5242
4 30.8058 41.6293 9.8995 21.2132 0.0000 53.5350 30.8058 7.0711 48.8467 30.8058 30.8058 7.0711 7.0711 48.8467 48.8467 30.8058
5 51.0784 46.5296 56.4624 40.0000 53.5350 0.0000 51.0784 60.0333 10.0000 51.0784 51.0784 60.0333 60.0333 10.0000 10.0000 51.0784
6 0.0000 13.0384 40.6079 15.5242 30.8058 51.0784 0.0000 36.2353 42.0595 0.0000 0.0000 36.2353 36.2353 42.0595 42.0595 0.0000
9 36.2353 47.7598 8.0000 28.0713 7.0711 60.0333 36.2353 0.0000 55.7136 36.2353 36.2353 0.0000 0.0000 55.7136 55.7136 36.2353
12 42.0595 36.6742 53.3667 32.5576 48.8467 10.0000 42.0595 55.7136 0.0000 42.0595 42.0595 55.7136 55.7136 0.0000 0.0000 42.0595
7 0.0000 13.0384 40.6079 15.5242 30.8058 51.0784 0.0000 36.2353 42.0595 0.0000 0.0000 36.2353 36.2353 42.0595 42.0595 0.0000
8 0.0000 13.0384 40.6079 15.5242 30.8058 51.0784 0.0000 36.2353 42.0595 0.0000 0.0000 36.2353 36.2353 42.0595 42.0595 0.0000
10 36.2353 47.7598 8.0000 28.0713 7.0711 60.0333 36.2353 0.0000 55.7136 36.2353 36.2353 0.0000 0.0000 55.7136 55.7136 36.2353
11 36.2353 47.7598 8.0000 28.0713 7.0711 60.0333 36.2353 0.0000 55.7136 36.2353 36.2353 0.0000 0.0000 55.7136 55.7136 36.2353
13 42.0595 36.6742 53.3667 32.5576 48.8467 10.0000 42.0595 55.7136 0.0000 42.0595 42.0595 55.7136 55.7136 0.0000 0.0000 42.0595
14 42.0595 36.6742 53.3667 32.5576 48.8467 10.0000 42.0595 55.7136 0.0000 42.0595 42.0595 55.7136 55.7136 0.0000 0.0000 42.0595
15 0.0000 13.0384 40.6079 15.5242 30.8058 51.0784 0.0000 36.2353 42.0595 0.0000 0.0000 36.2353 36.2353 42.0595 42.0595 0.0000
;

param t : 0 1 2 3 4 5 6 9 12 7 8 10 11 13 14 15 :=
0 0.0000 13.0384 40.6079 15.5242 30.8058 51.0784 0.0000 36.2353 42.0595 0.0000 0.0000 36.2353 36.2353 42.0595 42.0595 0.0000
1 13.0384 0.0000 51.0000 22.0227 41.6293 46.5296 13.0384 47.7598 36.6742 13.0384 13.0384 47.7598 47.7598 36.6742 36.6742 13.0384
2 40.6079 51.0000 0.0000 29.7321 9.8995 56.4624 40.6079 8.0000 53.3667 40.6079 40.6079 8.0000 8.0000 53.3667 53.3667 40.6079
3 15.5242 22.0227 29.7321 0.0000 21.2132 40.0000 15.5242 28.0713 32.5576 15.5242 15.5242 28.0713 28.0713 32.5576 32.5576 15.5242
4 30.8058 41.6293 9.8995 21.2132 0.0000 53.5350 30.8058 7.0711 48.8467 30.8058 30.8058 7.0711 7.0711 48.8467 48.8467 30.8058
5 51.0784 46.5296 56.4624 40.0000 53.5350 0.0000 51.0784 60.0333 10.0000 51.0784 51.0784 60.0333 60.0333 10.0000 10.0000 51.0784
6 0.0000 13.0384 40.6079 15.5242 30.8058 51.0784 0.0000 36.2353 42.0595 0.0000 0.0000 36.2353 36.2353 42.0595 42.0595 0.0000
9 36.2353 47.7598 8.0000 28.0713 7.0711 60.0333 36.2353 0.0000 55.7136 36.2353 36.2353 0.0000 0.0000 55.7136 55.7136 36.2353
12 42.0595 36.6742 53.3667 32.5576 48.8467 10.0000 42.0595 55.7136 0.0000 42.0595 42.0595 55.7136 55.7136 0.0000 0.0000 42.0595
7 0.0000 13.0384 40.6079 15.5242 30.8058 51.0784 0.0000 36.2353 42.0595 0.0000 0.0000 36.2353 36.2353 42.0595 42.0595 0.0000
8 0.0000 13.0384 40.6079 15.5242 30.8058 51.0784 0.0000 36.2353 42.0595 0.0000 0.0000 36.2353 36.2353 42.0595 42.0595 0.0000
10 36.2353 47.7598 8.0000 28.0713 7.0711 60.0333 36.2353 0.0000 55.7136 36.2353 36.2353 0.0000 0.0000 55.7136 55.7136 36.2353
11 36.2353 47.7598 8.0000 28.0713 7.0711 60.0333 36.2353 0.0000 55.7136 36.2353 36.2353 0.0000 0.0000 55.7136 55.7136 36.2353
13 42.0595 36.6742 53.3667 32.5576 48.8467 10.0000 42.0595 55.7136 0.0000 42.0595 42.0595 55.7136 55.7136 0.0000 0.0000 42.0595
14 42.0595 36.6742 53.3667 32.5576 48.8467 10.0000 42.0595 55.7136 0.0000 42.0595 42.0595 55.7136 55.7136 0.0000 0.0000 42.0595
15 0.0000 13.0384 40.6079 15.5242 30.8058 51.0784 0.0000 36.2353 42.0595 0.0000 0.0000 36.2353 36.2353 42.0595 42.0595 0.0000
;